25
1 0 1
2 0 2
2 1 9
3 0 9
3 1 1
3 2 3
4 0 7
4 1 2
4 2 8
4 3 7
5 0 7
5 1 4
5 2 7
5 3 6
5 4 2
6 0 2
6 1 7
6 2 7
6 3 10
6 4 3
6 5 10
7 0 2
7 1 2
7 2 5
7 3 9
7 4 6
7 5 3
7 6 6
8 0 3
8 1 3
8 2 10
8 3 6
8 4 10
8 5 1
8 6 9
8 7 6
9 0 7
9 1 1
9 2 5
9 3 4
9 4 8
9 5 3
9 6 10
9 7 7
9 8 6
10 0 4
10 1 8
10 2 2
10 3 5
10 4 3
10 5 8
10 6 3
10 7 6
10 8 5
10 9 6
11 0 1
11 1 4
11 2 7
11 3 4
11 4 10
11 5 8
11 6 10
11 7 7
11 8 4
11 9 10
11 10 2
12 0 9
12 1 4
12 2 5
12 3 3
12 4 6
12 5 2
12 6 4
12 7 8
12 8 10
12 9 5
12 10 3
12 11 8
13 0 2
13 1 9
13 2 1
13 3 10
13 4 9
13 5 7
13 6 5
13 7 6
13 8 9
13 9 7
13 10 6
13 11 5
13 12 1
14 0 2
14 1 9
14 2 2
14 3 5
14 4 8
14 5 1
14 6 8
14 7 1
14 8 4
14 9 2
14 10 7
14 11 9
14 12 7
14 13 5
15 0 9
15 1 1
15 2 3
15 3 5
15 4 6
15 5 2
15 6 4
15 7 9
15 8 3
15 9 8
15 10 8
15 11 1
15 12 8
15 13 5
15 14 6
16 0 3
16 1 6
16 2 10
16 3 9
16 4 4
16 5 6
16 6 8
16 7 4
16 8 2
16 9 2
16 10 8
16 11 3
16 12 9
16 13 9
16 14 2
16 15 10
17 0 5
17 1 8
17 2 3
17 3 2
17 4 10
17 5 8
17 6 5
17 7 3
17 8 3
17 9 2
17 10 7
17 11 5
17 12 3
17 13 2
17 14 1
17 15 8
17 16 5
18 0 5
18 1 9
18 2 8
18 3 5
18 4 8
18 5 6
18 6 2
18 7 3
18 8 8
18 9 5
18 10 10
18 11 5
18 12 9
18 13 10
18 14 3
18 15 3
18 16 6
18 17 6
19 0 2
19 1 6
19 2 2
19 3 1
19 4 4
19 5 8
19 6 9
19 7 6
19 8 7
19 9 9
19 10 6
19 11 2
19 12 1
19 13 10
19 14 7
19 15 5
19 16 10
19 17 4
19 18 3
20 0 7
20 1 2
20 2 4
20 3 3
20 4 9
20 5 3
20 6 4
20 7 6
20 8 3
20 9 7
20 10 6
20 11 3
20 12 4
20 13 5
20 14 7
20 15 7
20 16 6
20 17 4
20 18 10
20 19 6
21 0 4
21 1 10
21 2 4
21 3 3
21 4 8
21 5 5
21 6 4
21 7 1
21 8 8
21 9 6
21 10 10
21 11 10
21 12 10
21 13 10
21 14 9
21 15 9
21 16 5
21 17 4
21 18 5
21 19 5
21 20 1
22 0 1
22 1 9
22 2 10
22 3 10
22 4 1
22 5 10
22 6 1
22 7 8
22 8 4
22 9 2
22 10 8
22 11 2
22 12 1
22 13 5
22 14 3
22 15 7
22 16 10
22 17 1
22 18 10
22 19 9
22 20 6
22 21 7
23 0 1
23 1 4
23 2 8
23 3 8
23 4 4
23 5 1
23 6 8
23 7 2
23 8 6
23 9 8
23 10 3
23 11 8
23 12 1
23 13 4
23 14 7
23 15 1
23 16 4
23 17 5
23 18 7
23 19 1
23 20 5
23 21 10
23 22 1
24 0 9
24 1 5
24 2 8
24 3 9
24 4 8
24 5 2
24 6 9
24 7 2
24 8 5
24 9 4
24 10 1
24 11 6
24 12 5
24 13 2
24 14 5
24 15 6
24 16 9
24 17 6
24 18 4
24 19 4
24 20 9
24 21 5
24 22 2
24 23 2
